# CELL file written 18:19:30 (GMT-4.0) 12th July 2022 from run c_dia_p010

%BLOCK lattice_cart
   ANG
       1.77226065612950        1.77226065612950        0.00000000000000    
       1.77226065612950       0.106119620458216E-35    1.77226065612950    
     -0.106119620458216E-35    1.77226065612950        1.77226065612950    
%ENDBLOCK lattice_cart

%BLOCK cell_constraints
      1   1   1
      0   0   0
%ENDBLOCK cell_constraints

%BLOCK positions_frac
   C              0.125000000000000       0.125000000000000       0.125000000000000
   C              0.875000000000000       0.875000000000000       0.875000000000000
%ENDBLOCK positions_frac

FIX_ALL_IONS : true

FIX_COM : true

%BLOCK species_pot
   C       2|1.4|10|12|13|20:21(qc=7)
%ENDBLOCK species_pot

SYMMETRY_TOL :     0.001000

%BLOCK symmetry_ops
# Symm. op. 1       E
          1.000000000000000       0.000000000000000       0.000000000000000
          0.000000000000000       1.000000000000000       0.000000000000000
          0.000000000000000       0.000000000000000       1.000000000000000
          0.000000000000000       0.000000000000000       0.000000000000000
# Symm. op. 2     4_1
          0.000000000000000       0.000000000000000       1.000000000000000
          0.000000000000000       1.000000000000000       0.000000000000000
         -1.000000000000000       0.000000000000000       0.000000000000000
          1.000000000000000       0.000000000000000       0.500000000000000
# Symm. op. 3       2
         -1.000000000000000       0.000000000000000       0.000000000000000
          0.000000000000000       1.000000000000000       0.000000000000000
          0.000000000000000       0.000000000000000      -1.000000000000000
          1.000000000000000       0.500000000000000       0.000000000000000
# Symm. op. 4     4_1
          0.000000000000000       0.000000000000000      -1.000000000000000
          0.000000000000000       1.000000000000000       0.000000000000000
          1.000000000000000       0.000000000000000       0.000000000000000
          0.500000000000000       1.000000000000000       1.000000000000000
# Symm. op. 5       2
         -1.000000000000000       0.000000000000000       0.000000000000000
          0.000000000000000      -1.000000000000000       0.000000000000000
          0.000000000000000       0.000000000000000       1.000000000000000
          0.500000000000000       1.000000000000000       0.000000000000000
# Symm. op. 6     2_1
          0.000000000000000       0.000000000000000       1.000000000000000
          0.000000000000000      -1.000000000000000       0.000000000000000
          1.000000000000000       0.000000000000000       0.000000000000000
          1.000000000000000       0.500000000000000       0.000000000000000
# Symm. op. 7       2
          1.000000000000000       0.000000000000000       0.000000000000000
          0.000000000000000      -1.000000000000000       0.000000000000000
          0.000000000000000       0.000000000000000      -1.000000000000000
          0.000000000000000       0.000000000000000       0.500000000000000
# Symm. op. 8       2
          0.000000000000000       0.000000000000000      -1.000000000000000
          0.000000000000000      -1.000000000000000       0.000000000000000
         -1.000000000000000       0.000000000000000       0.000000000000000
          0.000000000000000       1.000000000000000       1.000000000000000
# Symm. op. 9       3
          0.000000000000000      -1.000000000000000       0.000000000000000
          0.000000000000000       0.000000000000000       1.000000000000000
         -1.000000000000000       0.000000000000000       0.000000000000000
          0.500000000000000       0.000000000000000       0.000000000000000
# Symm. op. 10    2_1
         -1.000000000000000       0.000000000000000       0.000000000000000
          0.000000000000000       0.000000000000000       1.000000000000000
          0.000000000000000       1.000000000000000       0.000000000000000
          1.000000000000000       1.000000000000000       0.500000000000000
# Symm. op. 11      3
          0.000000000000000       1.000000000000000       0.000000000000000
          0.000000000000000       0.000000000000000       1.000000000000000
          1.000000000000000       0.000000000000000       0.000000000000000
          0.000000000000000       1.000000000000000       0.000000000000000
# Symm. op. 12    4_1
          1.000000000000000       0.000000000000000       0.000000000000000
          0.000000000000000       0.000000000000000       1.000000000000000
          0.000000000000000      -1.000000000000000       0.000000000000000
          0.000000000000000       0.500000000000000       1.000000000000000
# Symm. op. 13      3
          0.000000000000000       1.000000000000000       0.000000000000000
          0.000000000000000       0.000000000000000      -1.000000000000000
         -1.000000000000000       0.000000000000000       0.000000000000000
          0.000000000000000       0.500000000000000       0.000000000000000
# Symm. op. 14      2
         -1.000000000000000       0.000000000000000       0.000000000000000
          0.000000000000000       0.000000000000000      -1.000000000000000
          0.000000000000000      -1.000000000000000       0.000000000000000
          1.000000000000000       1.000000000000000       0.000000000000000
# Symm. op. 15      3
          0.000000000000000      -1.000000000000000       0.000000000000000
          0.000000000000000       0.000000000000000      -1.000000000000000
          1.000000000000000       0.000000000000000       0.000000000000000
          1.000000000000000       0.000000000000000       0.500000000000000
# Symm. op. 16    4_1
          1.000000000000000       0.000000000000000       0.000000000000000
          0.000000000000000       0.000000000000000      -1.000000000000000
          0.000000000000000       1.000000000000000       0.000000000000000
          0.500000000000000       0.000000000000000       1.000000000000000
# Symm. op. 17      3
          0.000000000000000       0.000000000000000      -1.000000000000000
         -1.000000000000000       0.000000000000000       0.000000000000000
          0.000000000000000       1.000000000000000       0.000000000000000
          0.000000000000000       0.500000000000000       0.000000000000000
# Symm. op. 18    4_1
          0.000000000000000       1.000000000000000       0.000000000000000
         -1.000000000000000       0.000000000000000       0.000000000000000
          0.000000000000000       0.000000000000000       1.000000000000000
          0.000000000000000       1.000000000000000       0.500000000000000
# Symm. op. 19      3
          0.000000000000000       0.000000000000000       1.000000000000000
         -1.000000000000000       0.000000000000000       0.000000000000000
          0.000000000000000      -1.000000000000000       0.000000000000000
          0.500000000000000       1.000000000000000       0.000000000000000
# Symm. op. 20      2
          0.000000000000000      -1.000000000000000       0.000000000000000
         -1.000000000000000       0.000000000000000       0.000000000000000
          0.000000000000000       0.000000000000000      -1.000000000000000
          1.000000000000000       0.000000000000000       1.000000000000000
# Symm. op. 21      3
          0.000000000000000       0.000000000000000       1.000000000000000
          1.000000000000000       0.000000000000000       0.000000000000000
          0.000000000000000       1.000000000000000       0.000000000000000
          1.000000000000000       0.000000000000000       0.000000000000000
# Symm. op. 22    2_1
          0.000000000000000       1.000000000000000       0.000000000000000
          1.000000000000000       0.000000000000000       0.000000000000000
          0.000000000000000       0.000000000000000      -1.000000000000000
          0.500000000000000       1.000000000000000       0.000000000000000
# Symm. op. 23      3
          0.000000000000000       0.000000000000000      -1.000000000000000
          1.000000000000000       0.000000000000000       0.000000000000000
          0.000000000000000      -1.000000000000000       0.000000000000000
          0.000000000000000       1.000000000000000       0.500000000000000
# Symm. op. 24    4_1
          0.000000000000000      -1.000000000000000       0.000000000000000
          1.000000000000000       0.000000000000000       0.000000000000000
          0.000000000000000       0.000000000000000       1.000000000000000
          1.000000000000000       0.500000000000000       1.000000000000000
# Symm. op. 25      I
         -1.000000000000000       0.000000000000000       0.000000000000000
          0.000000000000000      -1.000000000000000       0.000000000000000
          0.000000000000000       0.000000000000000      -1.000000000000000
          1.000000000000000       0.000000000000000       0.000000000000000
# Symm. op. 26     -4
          0.000000000000000       0.000000000000000      -1.000000000000000
          0.000000000000000      -1.000000000000000       0.000000000000000
          1.000000000000000       0.000000000000000       0.000000000000000
          0.000000000000000       1.000000000000000       0.500000000000000
# Symm. op. 27      d
          1.000000000000000       0.000000000000000       0.000000000000000
          0.000000000000000      -1.000000000000000       0.000000000000000
          0.000000000000000       0.000000000000000       1.000000000000000
          0.000000000000000       0.500000000000000       1.000000000000000
# Symm. op. 28     -4
          0.000000000000000       0.000000000000000       1.000000000000000
          0.000000000000000      -1.000000000000000       0.000000000000000
         -1.000000000000000       0.000000000000000       0.000000000000000
          0.500000000000000       0.000000000000000       0.000000000000000
# Symm. op. 29      d
          1.000000000000000       0.000000000000000       0.000000000000000
          0.000000000000000       1.000000000000000       0.000000000000000
          0.000000000000000       0.000000000000000      -1.000000000000000
          0.500000000000000       0.000000000000000       0.000000000000000
# Symm. op. 30      m
          0.000000000000000       0.000000000000000      -1.000000000000000
          0.000000000000000       1.000000000000000       0.000000000000000
         -1.000000000000000       0.000000000000000       0.000000000000000
          0.000000000000000       0.500000000000000       1.000000000000000
# Symm. op. 31      d
         -1.000000000000000       0.000000000000000       0.000000000000000
          0.000000000000000       1.000000000000000       0.000000000000000
          0.000000000000000       0.000000000000000       1.000000000000000
          1.000000000000000       0.000000000000000       0.500000000000000
# Symm. op. 32      m
          0.000000000000000       0.000000000000000       1.000000000000000
          0.000000000000000       1.000000000000000       0.000000000000000
          1.000000000000000       0.000000000000000       0.000000000000000
          1.000000000000000       0.000000000000000       0.000000000000000
# Symm. op. 33     -3
          0.000000000000000       1.000000000000000       0.000000000000000
          0.000000000000000       0.000000000000000      -1.000000000000000
          1.000000000000000       0.000000000000000       0.000000000000000
          0.500000000000000       1.000000000000000       0.000000000000000
# Symm. op. 34      m
          1.000000000000000       0.000000000000000       0.000000000000000
          0.000000000000000       0.000000000000000      -1.000000000000000
          0.000000000000000      -1.000000000000000       0.000000000000000
          0.000000000000000       0.000000000000000       0.500000000000000
# Symm. op. 35     -3
          0.000000000000000      -1.000000000000000       0.000000000000000
          0.000000000000000       0.000000000000000      -1.000000000000000
         -1.000000000000000       0.000000000000000       0.000000000000000
          1.000000000000000       0.000000000000000       1.000000000000000
# Symm. op. 36     -4
         -1.000000000000000       0.000000000000000       0.000000000000000
          0.000000000000000       0.000000000000000      -1.000000000000000
          0.000000000000000       1.000000000000000       0.000000000000000
          1.000000000000000       0.500000000000000       0.000000000000000
# Symm. op. 37     -3
          0.000000000000000      -1.000000000000000       0.000000000000000
          0.000000000000000       0.000000000000000       1.000000000000000
          1.000000000000000       0.000000000000000       0.000000000000000
          1.000000000000000       0.500000000000000       0.000000000000000
# Symm. op. 38      m
          1.000000000000000       0.000000000000000       0.000000000000000
          0.000000000000000       0.000000000000000       1.000000000000000
          0.000000000000000       1.000000000000000       0.000000000000000
          0.000000000000000       0.000000000000000       1.000000000000000
# Symm. op. 39     -3
          0.000000000000000       1.000000000000000       0.000000000000000
          0.000000000000000       0.000000000000000       1.000000000000000
         -1.000000000000000       0.000000000000000       0.000000000000000
          0.000000000000000       1.000000000000000       0.500000000000000
# Symm. op. 40     -4
         -1.000000000000000       0.000000000000000       0.000000000000000
          0.000000000000000       0.000000000000000       1.000000000000000
          0.000000000000000      -1.000000000000000       0.000000000000000
          0.500000000000000       1.000000000000000       0.000000000000000
# Symm. op. 41     -3
          0.000000000000000       0.000000000000000       1.000000000000000
          1.000000000000000       0.000000000000000       0.000000000000000
          0.000000000000000      -1.000000000000000       0.000000000000000
          1.000000000000000       0.500000000000000       0.000000000000000
# Symm. op. 42     -4
          0.000000000000000      -1.000000000000000       0.000000000000000
          1.000000000000000       0.000000000000000       0.000000000000000
          0.000000000000000       0.000000000000000      -1.000000000000000
          1.000000000000000       0.000000000000000       0.500000000000000
# Symm. op. 43     -3
          0.000000000000000       0.000000000000000      -1.000000000000000
          1.000000000000000       0.000000000000000       0.000000000000000
          0.000000000000000       1.000000000000000       0.000000000000000
          0.500000000000000       1.000000000000000       1.000000000000000
# Symm. op. 44      m
          0.000000000000000       1.000000000000000       0.000000000000000
          1.000000000000000       0.000000000000000       0.000000000000000
          0.000000000000000       0.000000000000000       1.000000000000000
          0.000000000000000       1.000000000000000       0.000000000000000
# Symm. op. 45     -3
          0.000000000000000       0.000000000000000      -1.000000000000000
         -1.000000000000000       0.000000000000000       0.000000000000000
          0.000000000000000      -1.000000000000000       0.000000000000000
          0.000000000000000       1.000000000000000       0.000000000000000
# Symm. op. 46      m
          0.000000000000000      -1.000000000000000       0.000000000000000
         -1.000000000000000       0.000000000000000       0.000000000000000
          0.000000000000000       0.000000000000000       1.000000000000000
          0.500000000000000       1.000000000000000       1.000000000000000
# Symm. op. 47     -3
          0.000000000000000       0.000000000000000       1.000000000000000
         -1.000000000000000       0.000000000000000       0.000000000000000
          0.000000000000000       1.000000000000000       0.000000000000000
          0.000000000000000       0.000000000000000       0.500000000000000
# Symm. op. 48     -4
          0.000000000000000       1.000000000000000       0.000000000000000
         -1.000000000000000       0.000000000000000       0.000000000000000
          0.000000000000000       0.000000000000000      -1.000000000000000
          0.000000000000000       0.500000000000000       0.000000000000000
%ENDBLOCK symmetry_ops

kpoint_mp_grid :   25  25  25

%BLOCK external_pressure
   GPA
        10.00000000      0.00000000      0.00000000
        10.00000000      0.00000000
        10.00000000
%ENDBLOCK external_pressure

